data/solutions/planning/degenerate/moderate/weighting/degenerate_moderate_instance36_gurobi.sol
Elapsed time: 24.26
Nodes explored: 190559
Nodes left: 44682
Relative gap: 0.01
Upper bound: 37007551744.0
Lower bound: 37003922195
C[0]=1193853710.0
C[1]=1193821436.0
C[2]=1193656524.0
C[3]=1193651924.0
C[4]=1193390952.0
y[0]=3
y[1]=3
y[2]=1
y[3]=4
y[4]=1
y[5]=2
y[6]=2
y[7]=1
y[8]=4
y[9]=3
y[10]=3
y[11]=2
y[12]=0
y[13]=3
y[14]=1
y[15]=3
y[16]=3
y[17]=3
y[18]=4
y[19]=4
y[20]=4
y[21]=0
y[22]=3
y[23]=2
y[24]=3
y[25]=1
y[26]=0
y[27]=4
y[28]=2
y[29]=2
y[30]=0
y[31]=2
y[32]=0
y[33]=4
y[34]=1
y[35]=4
y[36]=0
y[37]=2
y[38]=0
y[39]=0
y[40]=2
y[41]=1
y[42]=1
y[43]=4
y[44]=1
